H2 soft-basis RHF fixture (s/sp/cart-d)
SP        RHF                                                         Custom
Number of atoms                            I                2
Charge                                     I                0
Multiplicity                               I                1
Number of electrons                        I                2
Number of alpha electrons                  I                1
Number of beta electrons                   I                1
Number of basis functions                  I               22
Atomic numbers                             I   N=           2
           1           1
Nuclear charges                            R   N=           2
  1.00000000E+00  1.00000000E+00
Current cartesian coordinates              R   N=           6
  0.00000000E+00  0.00000000E+00  0.00000000E+00  0.00000000E+00  0.00000000E+00
  1.40000000E+00
Shell types                                I   N=           6
           0          -1           2           0          -1           2
Number of primitives per shell             I   N=           6
           2           1           1           2           1           1
Shell to atom map                          I   N=           6
           1           1           1           2           2           2
Primitive exponents                        R   N=           8
  3.40000000E+00  1.20000000E+00  1.50000000E+00  1.30000000E+00  3.40000000E+00
  1.20000000E+00  1.50000000E+00  1.30000000E+00
Contraction coefficients                   R   N=           8
  4.00000000E-01  6.00000000E-01  1.00000000E+00  1.00000000E+00  4.00000000E-01
  6.00000000E-01  1.00000000E+00  1.00000000E+00
P(S=P) Contraction coefficients            R   N=           8
  0.00000000E+00  0.00000000E+00  1.00000000E+00  0.00000000E+00  0.00000000E+00
  0.00000000E+00  1.00000000E+00  0.00000000E+00
Alpha Orbital Energies                     R   N=          22
 -2.98011880E-01  1.01082262E+00  2.90885140E+00  2.90885140E+00  2.94224646E+00
  3.47810617E+00  3.47810617E+00  3.68465975E+00  3.77640863E+00  4.05410438E+00
  4.05410438E+00  4.63347321E+00  4.76910692E+00  4.76910692E+00  5.05826713E+00
  5.05826713E+00  6.11984565E+00  6.54624852E+00  6.54624852E+00  8.36675256E+00
  1.16964106E+01  1.24161036E+01
Alpha MO coefficients                      R   N=         484
  6.18857485E-01 -3.52061034E-01 -3.47504746E-17  1.08586570E-17 -6.99046947E-04
  1.79633418E-01  1.79633418E-01  1.62431939E-01 -1.17820551E-17 -2.11384925E-17
  1.02282880E-17  6.18857485E-01 -3.52061034E-01  2.07005395E-17  6.02392278E-18
  6.99046947E-04  1.79633418E-01  1.79633418E-01  1.62431939E-01  1.38013241E-17
 -3.42256608E-17  7.35017765E-18 -8.15906496E-01  3.18778108E-01  3.20937248E-17
  2.19861058E-17 -1.28093627E-01 -2.71732350E-01 -2.71732350E-01 -4.47396813E-01
 -1.83499050E-17 -9.23453428E-18 -8.05885896E-17  8.15906496E-01 -3.18778108E-01
 -2.69959301E-17 -1.91521595E-17 -1.28093627E-01  2.71732350E-01  2.71732350E-01
  4.47396813E-01  6.25579881E-19  3.54207370E-17 -5.79521396E-17  9.74477557E-15
 -1.42647033E-14  5.68083832E-01 -2.52352165E-01 -3.06607429E-15  1.51530833E-15
  1.41084920E-15  4.67043303E-15 -6.35276083E-16  3.77832267E-02 -1.67839296E-02
  9.57159109E-15 -1.43515054E-14  5.68083832E-01 -2.52352165E-01  4.33707731E-15
  1.76785828E-15  8.56008892E-16  3.33959916E-15 -5.39817218E-16 -3.77832267E-02
  1.67839296E-02 -1.58370095E-14  2.66358290E-14  2.52352165E-01  5.68083832E-01
  5.39495331E-15 -2.03660129E-16 -8.40140348E-15 -6.51544099E-15 -1.38227254E-15
  1.67839296E-02  3.77832267E-02 -1.74616314E-14  2.86210059E-14  2.52352165E-01
  5.68083832E-01 -5.61053434E-15 -3.39662696E-15 -5.35201853E-15 -6.80022195E-15
  1.58641009E-15 -1.67839296E-02 -3.77832267E-02 -6.12810827E-01  1.00916298E+00
  4.27778855E-16 -8.83551305E-15  5.58593905E-01 -6.80347568E-02 -6.80347568E-02
 -4.95911758E-01  3.33000951E-16  4.80758866E-16 -1.30082065E-16 -6.12810827E-01
  1.00916298E+00  1.58105964E-15 -8.87444171E-15 -5.58593905E-01 -6.80347568E-02
 -6.80347568E-02 -4.95911758E-01  1.92310995E-16  7.14443245E-17  8.30336278E-16
 -4.18196844E-15  5.49559158E-15 -4.10186239E-01  1.49698296E-01 -2.73990525E-15
 -1.49254574E-15 -6.01183059E-16 -2.74665368E-15  4.56233499E-15  4.91175339E-01
 -1.79255431E-01 -5.12120455E-15  7.72993132E-15  4.10186239E-01 -1.49698296E-01
 -1.02096270E-15 -2.02042456E-15 -4.89675320E-16  2.65066374E-15  2.09731239E-15
  4.91175339E-01 -1.79255431E-01  2.18574149E-15 -3.68659124E-16 -1.49698296E-01
 -4.10186239E-01 -1.75173230E-15 -8.68285019E-15  6.43974251E-15 -7.06244765E-18
  1.25647204E-14  1.79255431E-01  4.91175339E-01 -1.86976585E-14  2.73047097E-14
  1.49698296E-01  4.10186239E-01  6.89274323E-16 -7.38426675E-15 -2.39013322E-15
 -8.86183943E-16  9.42074336E-15  1.79255431E-01  4.91175339E-01 -3.18550888E-01
  2.71792863E-01  3.92813444E-16 -7.35420104E-16 -6.53585780E-01 -2.19615870E-02
 -2.19615870E-02 -1.29612734E+00  1.43300460E-16 -1.33624169E-15  5.98556808E-16
  3.18550888E-01 -2.71792863E-01  2.30774639E-16  9.45680850E-16 -6.53585780E-01
  2.19615870E-02  2.19615870E-02  1.29612734E+00  1.22251786E-16 -1.35502229E-15
  8.46125646E-16 -9.19578370E-01  1.74446917E+00  2.55065510E-15  1.79971712E-15
 -1.29252409E-01 -4.97103603E-01 -4.97103603E-01 -5.45973843E-02 -3.99722019E-15
 -4.29198151E-15 -5.59016925E-15 -9.19578370E-01  1.74446917E+00 -1.14837363E-15
 -4.71428667E-15  1.29252409E-01 -4.97103603E-01 -4.97103603E-01 -5.45973843E-02
 -4.06614404E-17  2.77475084E-16  4.97834880E-15 -3.53577271E-15 -1.73949711E-15
  2.55867438E-15  6.45821532E-15  2.07126648E-15 -5.26609201E-01  5.26609201E-01
  8.59486923E-16 -1.44765404E-01 -2.93912771E-15 -4.62708177E-15  2.06955051E-14
 -3.60677174E-14  1.96959972E-15  1.37672980E-15 -1.32703824E-16 -5.26609201E-01
  5.26609201E-01  3.68116291E-16 -1.44765404E-01  1.01045496E-15  1.64446985E-15
 -1.36117003E-15  1.92301108E-15  7.25520330E-15  6.45734408E-15 -6.83468657E-16
 -1.25370517E-01  1.25370517E-01  4.56684604E-16  6.08075928E-01 -6.88368330E-15
 -1.05314658E-14 -9.11431607E-17 -1.87572472E-16 -5.76466267E-15 -6.48270797E-15
  3.39109894E-16 -1.25370517E-01  1.25370517E-01  4.27694989E-16  6.08075928E-01
 -6.06330042E-15 -1.30383473E-14 -1.30249863E+00  2.31402881E+00  1.07880935E-15
  1.63062642E-15  2.82419005E-02 -7.16991835E-01 -7.16991835E-01  1.36445463E-01
 -4.63129461E-16 -8.51697460E-15 -9.36558927E-15  1.30249863E+00 -2.31402881E+00
  5.25437202E-15  6.20849316E-15  2.82419005E-02  7.16991835E-01  7.16991835E-01
 -1.36445463E-01  9.60466484E-16  6.01749868E-15  9.54829711E-15 -1.03325694E-14
  1.73719193E-14 -2.46802249E-01  8.86400532E-02 -5.39033111E-16 -8.22331271E-15
 -4.84268793E-16 -7.92468147E-17  1.96822237E-15  5.86957235E-01 -2.10808129E-01
 -4.57963383E-15  3.46549966E-16 -2.46802249E-01  8.86400532E-02  6.20124436E-16
  5.93797693E-15  1.74108132E-15 -1.91428115E-15 -5.17022105E-16 -5.86957235E-01
  2.10808129E-01 -2.80939004E-14  5.40719413E-14 -8.86400532E-02 -2.46802249E-01
 -1.53897970E-15 -2.02475184E-14 -1.44302157E-14  1.04578191E-15 -1.68004524E-15
  2.10808129E-01  5.86957235E-01  2.86062573E-15 -1.30833831E-14 -8.86400532E-02
 -2.46802249E-01  1.49304755E-15  5.65967574E-15  1.17471894E-14 -3.39417120E-15
 -2.42397537E-15 -2.10808129E-01 -5.86957235E-01  1.00193576E-14 -5.61474930E-15
  1.70163776E-15  2.96664024E-15 -9.80100760E-16  4.81055671E-01 -4.81055671E-01
  2.14379983E-15  6.20977153E-01  2.87656115E-15  4.48683114E-15  4.11934850E-15
 -9.66618284E-15 -2.23905114E-15 -3.07939374E-15 -1.87020472E-15 -4.81055671E-01
  4.81055671E-01  2.26761337E-15 -6.20977153E-01  1.04858456E-15  5.68092134E-15
  1.11936415E-14 -8.63835632E-15 -1.09083557E-15 -4.83550441E-15  1.01751294E-15
  5.37781990E-01 -5.37781990E-01  2.50534336E-15 -5.55475242E-01  6.15233493E-15
 -3.94826213E-16  9.03819869E-15 -1.72911056E-14 -2.29550361E-15  2.04432765E-15
 -8.15242904E-16 -5.37781990E-01  5.37781990E-01  1.10250535E-15  5.55475242E-01
  6.95130664E-16  8.15907858E-16 -9.51187522E-01  1.89746729E+00  8.00599031E-15
  1.52813734E-14 -2.26468081E-01  8.88693443E-02  8.88693443E-02 -1.05495171E+00
  5.55547669E-16  7.59127705E-15  1.75329303E-14 -9.51187522E-01  1.89746729E+00
 -7.25281284E-15 -1.60438646E-14  2.26468081E-01  8.88693443E-02  8.88693443E-02
 -1.05495171E+00 -2.38268365E-16  9.18390294E-15  1.81299848E-14  3.06411268E-14
 -4.20306471E-14  9.72960943E-01 -6.69579049E-02 -7.71606970E-15 -3.60709849E-15
  1.44707596E-15  2.30386656E-15 -7.05615945E-16  1.12752476E+00 -7.75947853E-02
  7.32535908E-16 -4.03016144E-15 -9.72960943E-01  6.69579049E-02 -1.15736329E-14
  2.14492683E-15 -2.15367995E-15  1.38942859E-14 -8.06213650E-16  1.12752476E+00
 -7.75947853E-02  4.98128731E-15 -2.81612306E-14  6.69579049E-02  9.72960943E-01
 -7.54289089E-15 -2.33186150E-15 -2.09774710E-19  1.13563604E-14 -2.47489610E-15
  7.75947853E-02  1.12752476E+00 -3.68563198E-14  2.55843420E-14 -6.69579049E-02
 -9.72960943E-01 -1.50246561E-14  3.43919355E-16 -2.63865554E-15  2.41385064E-14
  6.09299709E-15  7.75947853E-02  1.12752476E+00  1.02038506E+00  4.57496703E-01
  2.82383483E-15  3.37773903E-15  2.73487613E+00  1.86251612E-02  1.86251612E-02
  1.76473948E+00  4.92569770E-16  3.51074637E-15  3.04956872E-15 -1.02038506E+00
 -4.57496703E-01 -2.92613890E-15 -2.78907188E-15  2.73487613E+00 -1.86251612E-02
 -1.86251612E-02 -1.76473948E+00 -2.41575971E-16  4.22010411E-15  3.59096560E-15
 -6.54548628E+00  6.95774186E+00  4.14361470E-15 -1.07611831E-14 -6.53515921E-02
 -1.70519233E-01 -1.70519233E-01 -3.45310187E-01 -3.46590356E-17 -7.47728781E-16
 -1.23607185E-14 -6.54548628E+00  6.95774186E+00 -9.54409388E-16  8.10196641E-15
  6.53515921E-02 -1.70519233E-01 -1.70519233E-01 -3.45310187E-01  5.09763596E-17
  2.74483696E-15 -1.13032454E-14 -7.26465743E+00  8.30433908E+00  4.15419068E-15
  4.54525174E-15  1.07678278E+00 -3.84564942E-01 -3.84564942E-01  4.37420125E-01
  1.31607432E-15  9.12085307E-15  1.05419202E-14  7.26465743E+00 -8.30433908E+00
 -5.53202616E-15 -5.16022201E-15  1.07678278E+00  3.84564942E-01  3.84564942E-01
 -4.37420125E-01 -3.69568829E-16  5.74270914E-15  7.52444683E-15
