h2 ccpvtz spherical d                                                   
SP        RHF                                                         CC-pVTZ             
Number of atoms                            I                2
Info1-9                                    I   N=           9
           9           9           0           0           0         110
           1           1           2
Charge                                     I                0
Multiplicity                               I                1
Number of electrons                        I                2
Number of alpha electrons                  I                1
Number of beta electrons                   I                1
Number of basis functions                  I               28
Number of independent functions            I               28
Number of point charges in /Mol/           I                0
Number of translation vectors              I                0
Atomic numbers                             I   N=           2
           1           1
Nuclear charges                            R   N=           2
  1.00000000E+00  1.00000000E+00
Current cartesian coordinates              R   N=           6
  0.00000000E+00  0.00000000E+00  6.99198669E-01  8.56271412E-17  0.00000000E+00
 -6.99198669E-01
Force Field                                I                0
Int Atom Types                             I   N=           2
           0           0
MM charges                                 R   N=           2
  0.00000000E+00  0.00000000E+00
Integer atomic weights                     I   N=           2
           1           1
Real atomic weights                        R   N=           2
  1.00782504E+00  1.00782504E+00
Atom fragment info                         I   N=           2
           0           0
Atom residue num                           I   N=           2
           0           0
Nuclear spins                              I   N=           2
           1           1
Nuclear ZEff                               R   N=           2
 -1.00000000E+00 -1.00000000E+00
Nuclear QMom                               R   N=           2
  0.00000000E+00  0.00000000E+00
Nuclear GFac                               R   N=           2
  2.79284600E+00  2.79284600E+00
MicOpt                                     I   N=           2
          -1          -1
Number of contracted shells                I               12
Number of primitive shells                 I               16
Pure/Cartesian d shells                    I                0
Pure/Cartesian f shells                    I                0
Highest angular momentum                   I                2
Largest degree of contraction              I                3
Shell types                                I   N=          12
           0           0           0           1           1          -2
           0           0           0           1           1          -2
Number of primitives per shell             I   N=          12
           3           1           1           1           1           1
           3           1           1           1           1           1
Shell to atom map                          I   N=          12
           1           1           1           1           1           1
           2           2           2           2           2           2
Primitive exponents                        R   N=          16
  3.38700000E+01  5.09500000E+00  1.15900000E+00  3.25800000E-01  1.02700000E-01
  1.40700000E+00  3.88000000E-01  1.05700000E+00  3.38700000E+01  5.09500000E+00
  1.15900000E+00  3.25800000E-01  1.02700000E-01  1.40700000E+00  3.88000000E-01
  1.05700000E+00
Contraction coefficients                   R   N=          16
  2.54948632E-02  1.90362766E-01  8.52162022E-01  1.00000000E+00  1.00000000E+00
  1.00000000E+00  1.00000000E+00  1.00000000E+00  2.54948632E-02  1.90362766E-01
  8.52162022E-01  1.00000000E+00  1.00000000E+00  1.00000000E+00  1.00000000E+00
  1.00000000E+00
Coordinates of each shell                  R   N=          36
  0.00000000E+00  0.00000000E+00  6.99198669E-01  0.00000000E+00  0.00000000E+00
  6.99198669E-01  0.00000000E+00  0.00000000E+00  6.99198669E-01  0.00000000E+00
  0.00000000E+00  6.99198669E-01  0.00000000E+00  0.00000000E+00  6.99198669E-01
  0.00000000E+00  0.00000000E+00  6.99198669E-01  8.56271412E-17  0.00000000E+00
 -6.99198669E-01  8.56271412E-17  0.00000000E+00 -6.99198669E-01  8.56271412E-17
  0.00000000E+00 -6.99198669E-01  8.56271412E-17  0.00000000E+00 -6.99198669E-01
  8.56271412E-17  0.00000000E+00 -6.99198669E-01  8.56271412E-17  0.00000000E+00
 -6.99198669E-01
Constraint Structure                       R   N=           6
  0.00000000E+00  0.00000000E+00  6.99198669E-01  8.56271412E-17  0.00000000E+00
 -6.99198669E-01
Num ILSW                                   I              100
ILSW                                       I   N=         100
           0           0           0           0           2           0
           0           0           0           0           0          -1
           0           0           0           0           0           0
           0           0           0           0           0           0
           1           0           0           0           0           0
           0           0      100000           0          -1           0
           0           0           0           0           0           0
           0           0           0           1           0           0
           0           0           1           0           0           0
           0           0           4          40           0           0
           0           0           0           0           0           0
           0           0           0           0           0           0
           0           0           0           0           0           0
           0           0           0           0           0           0
           0           0           0           0           0           0
           0           0           0           0           0           0
           0           0           0           0
Num RLSW                                   I               40
RLSW                                       R   N=          40
  1.00000000E+00  1.00000000E+00  1.00000000E+00  1.00000000E+00  1.00000000E+00
  0.00000000E+00  0.00000000E+00  1.00000000E+00  0.00000000E+00  0.00000000E+00
  0.00000000E+00  0.00000000E+00  1.00000000E+00  0.00000000E+00  0.00000000E+00
  0.00000000E+00  0.00000000E+00  1.00000000E+00  0.00000000E+00  0.00000000E+00
  0.00000000E+00  0.00000000E+00  1.00000000E+00  0.00000000E+00  0.00000000E+00
  0.00000000E+00  0.00000000E+00  1.00000000E+00  0.00000000E+00  0.00000000E+00
  0.00000000E+00  0.00000000E+00  1.00000000E+00  0.00000000E+00  0.00000000E+00
  0.00000000E+00  0.00000000E+00  0.00000000E+00  1.00000000E+00  1.00000000E+00
MxBond                                     I                1
NBond                                      I   N=           2
           1           1
IBond                                      I   N=           2
           2           1
RBond                                      R   N=           2
  1.00000000E+00  1.00000000E+00
Virial Ratio                               R      2.007982093629130E+00
SCF Energy                                 R     -1.132967682896557E+00
Total Energy                               R     -1.132967682896557E+00
RMS Density                                R      2.013623845220622E-09
External E-field                           R   N=          35
  0.00000000E+00  0.00000000E+00  0.00000000E+00  0.00000000E+00  0.00000000E+00
  0.00000000E+00  0.00000000E+00  0.00000000E+00  0.00000000E+00  0.00000000E+00
  0.00000000E+00  0.00000000E+00  0.00000000E+00  0.00000000E+00  0.00000000E+00
  0.00000000E+00  0.00000000E+00  0.00000000E+00  0.00000000E+00  0.00000000E+00
  0.00000000E+00  0.00000000E+00  0.00000000E+00  0.00000000E+00  0.00000000E+00
  0.00000000E+00  0.00000000E+00  0.00000000E+00  0.00000000E+00  0.00000000E+00
  0.00000000E+00  0.00000000E+00  0.00000000E+00  0.00000000E+00  0.00000000E+00
IOpCl                                      I                0
IROHF                                      I                0
Alpha Orbital Energies                     R   N=          28
 -5.94689159E-01  1.67257317E-01  3.05000961E-01  6.43881057E-01  6.92712022E-01
  6.92712022E-01  1.09663289E+00  1.12012429E+00  1.12012429E+00  1.52944197E+00
  2.33708112E+00  2.40689112E+00  3.17544058E+00  3.17544058E+00  3.41275694E+00
  3.41275694E+00  3.67512336E+00  3.89280388E+00  3.89280388E+00  4.08534278E+00
  4.08534278E+00  4.11499408E+00  4.11499408E+00  4.65986545E+00  5.73301409E+00
  5.73301409E+00  5.80954637E+00  6.97105707E+00
Alpha MO coefficients                      R   N=         784
  1.86586695E-01  2.83646531E-01  1.35325032E-01  0.00000000E+00  0.00000000E+00
 -1.20596055E-02  0.00000000E+00  0.00000000E+00 -1.73933393E-02  8.32197176E-04
  0.00000000E+00  0.00000000E+00 -3.91988887E-17  0.00000000E+00  1.86586695E-01
  2.83646531E-01  1.35325032E-01  0.00000000E+00  0.00000000E+00  1.20596055E-02
  0.00000000E+00  0.00000000E+00  1.73933393E-02  8.32197176E-04  0.00000000E+00
  0.00000000E+00 -3.91988887E-17  0.00000000E+00  6.66068293E-02 -3.13199685E-01
  2.32722893E+00  0.00000000E+00  0.00000000E+00  3.50335295E-02  0.00000000E+00
  0.00000000E+00  1.03381310E-01 -1.93022461E-02  0.00000000E+00  0.00000000E+00
 -3.21009729E-17  0.00000000E+00 -6.66068293E-02  3.13199685E-01 -2.32722893E+00
  0.00000000E+00  0.00000000E+00  3.50335295E-02  0.00000000E+00  0.00000000E+00
  1.03381310E-01  1.93022461E-02  0.00000000E+00  0.00000000E+00  3.21009729E-17
  0.00000000E+00 -5.60828211E-02 -7.34566219E-01  8.60664002E-01  0.00000000E+00
  0.00000000E+00  1.67082989E-02  0.00000000E+00  0.00000000E+00 -5.07266073E-02
  7.96310563E-03  0.00000000E+00  0.00000000E+00 -3.43764687E-17  0.00000000E+00
 -5.60828211E-02 -7.34566219E-01  8.60664002E-01  0.00000000E+00  0.00000000E+00
 -1.67082989E-02  0.00000000E+00  0.00000000E+00  5.07266073E-02  7.96310563E-03
  0.00000000E+00  0.00000000E+00 -3.43764687E-17  0.00000000E+00  1.24907421E-01
  2.26720842E+00 -2.25465694E+00  0.00000000E+00  0.00000000E+00 -8.50106244E-02
  0.00000000E+00  0.00000000E+00 -2.02583679E-01  7.07873048E-02  0.00000000E+00
  0.00000000E+00  1.75926343E-16  0.00000000E+00 -1.24907421E-01 -2.26720842E+00
  2.25465694E+00  0.00000000E+00  0.00000000E+00 -8.50106244E-02  0.00000000E+00
  0.00000000E+00 -2.02583679E-01 -7.07873048E-02  0.00000000E+00  0.00000000E+00
 -1.75926343E-16  0.00000000E+00  0.00000000E+00  0.00000000E+00  0.00000000E+00
  0.00000000E+00 -5.86825739E-02  0.00000000E+00  0.00000000E+00  5.78275818E-01
  0.00000000E+00  0.00000000E+00  0.00000000E+00  9.01625127E-03  0.00000000E+00
  0.00000000E+00  0.00000000E+00  0.00000000E+00  0.00000000E+00  0.00000000E+00
 -5.86825739E-02  0.00000000E+00  0.00000000E+00  5.78275818E-01  0.00000000E+00
  0.00000000E+00  0.00000000E+00 -9.01625127E-03  0.00000000E+00  0.00000000E+00
  0.00000000E+00  0.00000000E+00  0.00000000E+00 -5.86825739E-02  0.00000000E+00
  0.00000000E+00  5.78275818E-01  0.00000000E+00  0.00000000E+00  0.00000000E+00
  9.01625127E-03  0.00000000E+00  0.00000000E+00  0.00000000E+00  0.00000000E+00
  0.00000000E+00  0.00000000E+00 -5.86825739E-02  0.00000000E+00  0.00000000E+00
  5.78275818E-01  0.00000000E+00  0.00000000E+00  0.00000000E+00 -9.01625127E-03
  0.00000000E+00  0.00000000E+00  0.00000000E+00  6.58612519E-03  6.67652040E-01
 -3.56300962E-01  0.00000000E+00  0.00000000E+00 -1.02730131E-01  0.00000000E+00
  0.00000000E+00  1.06222577E+00 -6.71178202E-02  0.00000000E+00  0.00000000E+00
 -4.03104930E-17  0.00000000E+00  6.58612519E-03  6.67652040E-01 -3.56300962E-01
  0.00000000E+00  0.00000000E+00  1.02730131E-01  0.00000000E+00  0.00000000E+00
 -1.06222577E+00 -6.71178202E-02  0.00000000E+00  0.00000000E+00 -4.03104930E-17
  0.00000000E+00  0.00000000E+00  0.00000000E+00  0.00000000E+00  0.00000000E+00
 -6.69003236E-02  0.00000000E+00  0.00000000E+00  1.41857955E+00  0.00000000E+00
  0.00000000E+00  0.00000000E+00 -1.08312813E-01  0.00000000E+00  0.00000000E+00
  0.00000000E+00  0.00000000E+00  0.00000000E+00  0.00000000E+00  6.69003236E-02
  0.00000000E+00  0.00000000E+00 -1.41857955E+00  0.00000000E+00  0.00000000E+00
  0.00000000E+00 -1.08312813E-01  0.00000000E+00  0.00000000E+00  0.00000000E+00
  0.00000000E+00  0.00000000E+00 -6.69003236E-02  0.00000000E+00  0.00000000E+00
  1.41857955E+00  0.00000000E+00  0.00000000E+00  0.00000000E+00 -1.08312813E-01
  0.00000000E+00  0.00000000E+00  0.00000000E+00  0.00000000E+00  0.00000000E+00
  0.00000000E+00  6.69003236E-02  0.00000000E+00  0.00000000E+00 -1.41857955E+00
  0.00000000E+00  0.00000000E+00  0.00000000E+00 -1.08312813E-01  0.00000000E+00
  0.00000000E+00  0.00000000E+00  3.43047929E-02  1.31090452E+01 -3.27447753E-01
  0.00000000E+00  0.00000000E+00 -1.28086221E-01  0.00000000E+00  0.00000000E+00
 -6.21611315E+00  2.88612436E-01  0.00000000E+00  0.00000000E+00 -3.91939494E-16
  0.00000000E+00 -3.43047929E-02 -1.31090452E+01  3.27447753E-01  0.00000000E+00
  0.00000000E+00 -1.28086221E-01  0.00000000E+00  0.00000000E+00 -6.21611315E+00
 -2.88612436E-01  0.00000000E+00  0.00000000E+00  3.91939494E-16  0.00000000E+00
 -6.28130875E-01  3.36234055E+00 -1.31912917E+00  0.00000000E+00  0.00000000E+00
 -5.59080702E-01  0.00000000E+00  0.00000000E+00 -6.58201069E-01  4.21509530E-01
  0.00000000E+00  0.00000000E+00  1.69412754E-17  0.00000000E+00  6.28130875E-01
 -3.36234055E+00  1.31912917E+00  0.00000000E+00  0.00000000E+00 -5.59080702E-01
  0.00000000E+00  0.00000000E+00 -6.58201069E-01 -4.21509530E-01  0.00000000E+00
  0.00000000E+00 -1.69412754E-17  0.00000000E+00 -9.57184735E-01  9.91593043E-01
 -3.86074274E-01  0.00000000E+00  0.00000000E+00  1.05824480E-01  0.00000000E+00
  0.00000000E+00 -2.42380015E-01 -1.10905703E-01  0.00000000E+00  0.00000000E+00
 -1.36444625E-15  0.00000000E+00 -9.57184735E-01  9.91593043E-01 -3.86074274E-01
  0.00000000E+00  0.00000000E+00 -1.05824480E-01  0.00000000E+00  0.00000000E+00
  2.42380015E-01 -1.10905703E-01  0.00000000E+00  0.00000000E+00 -1.36444625E-15
  0.00000000E+00 -2.66245001E-15  2.99883657E-15 -1.44285164E-15  0.00000000E+00
  0.00000000E+00  8.34682623E-16  0.00000000E+00  0.00000000E+00 -8.92989387E-16
 -1.06372422E-16  0.00000000E+00  0.00000000E+00  6.07285721E-01  0.00000000E+00
 -2.66245001E-15  2.99883657E-15 -1.44285164E-15  0.00000000E+00  0.00000000E+00
 -8.34682623E-16  0.00000000E+00  0.00000000E+00  8.92989387E-16 -1.06372422E-16
  0.00000000E+00  0.00000000E+00  6.07285721E-01  0.00000000E+00  0.00000000E+00
  0.00000000E+00  0.00000000E+00  0.00000000E+00  0.00000000E+00  0.00000000E+00
  0.00000000E+00  0.00000000E+00  0.00000000E+00  0.00000000E+00  0.00000000E+00
  0.00000000E+00  0.00000000E+00  6.07285721E-01  0.00000000E+00  0.00000000E+00
  0.00000000E+00  0.00000000E+00  0.00000000E+00  0.00000000E+00  0.00000000E+00
  0.00000000E+00  0.00000000E+00  0.00000000E+00  0.00000000E+00  0.00000000E+00
  0.00000000E+00  6.07285721E-01  0.00000000E+00  0.00000000E+00  0.00000000E+00
  0.00000000E+00  5.88995228E-01  0.00000000E+00  0.00000000E+00 -3.56904217E-01
  0.00000000E+00  0.00000000E+00  0.00000000E+00 -3.20261952E-01  0.00000000E+00
  0.00000000E+00  0.00000000E+00  0.00000000E+00  0.00000000E+00  0.00000000E+00
  5.88995228E-01  0.00000000E+00  0.00000000E+00 -3.56904217E-01  0.00000000E+00
  0.00000000E+00  0.00000000E+00  3.20261952E-01  0.00000000E+00  0.00000000E+00
  0.00000000E+00  0.00000000E+00  0.00000000E+00  5.88995228E-01  0.00000000E+00
  0.00000000E+00 -3.56904217E-01  0.00000000E+00  0.00000000E+00  0.00000000E+00
 -3.20261952E-01  0.00000000E+00  0.00000000E+00  0.00000000E+00  0.00000000E+00
  0.00000000E+00  0.00000000E+00  5.88995228E-01  0.00000000E+00  0.00000000E+00
 -3.56904217E-01  0.00000000E+00  0.00000000E+00  0.00000000E+00  3.20261952E-01
  0.00000000E+00  0.00000000E+00  0.00000000E+00  8.69460481E-02  2.66065019E-01
 -1.54389052E-01  0.00000000E+00  0.00000000E+00 -8.21862395E-01  0.00000000E+00
  0.00000000E+00  8.74156631E-01 -4.33636448E-01  0.00000000E+00  0.00000000E+00
  5.34594617E-16  0.00000000E+00  8.69460481E-02  2.66065019E-01 -1.54389052E-01
  0.00000000E+00  0.00000000E+00  8.21862395E-01  0.00000000E+00  0.00000000E+00
 -8.74156631E-01 -4.33636448E-01  0.00000000E+00  0.00000000E+00  5.34594617E-16
  0.00000000E+00  0.00000000E+00  0.00000000E+00  0.00000000E+00  0.00000000E+00
 -4.97243321E-01  0.00000000E+00  0.00000000E+00  1.13755025E+00  0.00000000E+00
  0.00000000E+00  0.00000000E+00 -8.35618124E-01  0.00000000E+00  0.00000000E+00
  0.00000000E+00  0.00000000E+00  0.00000000E+00  0.00000000E+00  4.97243321E-01
  0.00000000E+00  0.00000000E+00 -1.13755025E+00  0.00000000E+00  0.00000000E+00
  0.00000000E+00 -8.35618124E-01  0.00000000E+00  0.00000000E+00  0.00000000E+00
  0.00000000E+00  0.00000000E+00 -4.97243321E-01  0.00000000E+00  0.00000000E+00
  1.13755025E+00  0.00000000E+00  0.00000000E+00  0.00000000E+00 -8.35618124E-01
  0.00000000E+00  0.00000000E+00  0.00000000E+00  0.00000000E+00  0.00000000E+00
  0.00000000E+00  4.97243321E-01  0.00000000E+00  0.00000000E+00 -1.13755025E+00
  0.00000000E+00  0.00000000E+00  0.00000000E+00 -8.35618124E-01  0.00000000E+00
  0.00000000E+00  0.00000000E+00 -5.09198208E-16  4.90600522E-15  1.15727196E-15
  0.00000000E+00  0.00000000E+00  5.25758176E-16  0.00000000E+00  0.00000000E+00
 -2.79858647E-15 -4.34431257E-16  0.00000000E+00  0.00000000E+00  8.80972317E-01
  0.00000000E+00  5.09198208E-16 -4.90600522E-15 -1.15727196E-15  0.00000000E+00
  0.00000000E+00  5.25758176E-16  0.00000000E+00  0.00000000E+00 -2.79858647E-15
  4.34431257E-16  0.00000000E+00  0.00000000E+00 -8.80972317E-01  0.00000000E+00
  0.00000000E+00  0.00000000E+00  0.00000000E+00  0.00000000E+00  0.00000000E+00
  0.00000000E+00  0.00000000E+00  0.00000000E+00  0.00000000E+00  0.00000000E+00
  0.00000000E+00  0.00000000E+00  0.00000000E+00  8.80972317E-01  0.00000000E+00
  0.00000000E+00  0.00000000E+00  0.00000000E+00  0.00000000E+00  0.00000000E+00
  0.00000000E+00  0.00000000E+00  0.00000000E+00  0.00000000E+00  0.00000000E+00
  0.00000000E+00  0.00000000E+00 -8.80972317E-01  0.00000000E+00  0.00000000E+00
  0.00000000E+00  6.55537517E-01  0.00000000E+00  0.00000000E+00 -2.47852754E-01
  0.00000000E+00  0.00000000E+00  0.00000000E+00  5.65273984E-01  0.00000000E+00
  0.00000000E+00  0.00000000E+00  0.00000000E+00  0.00000000E+00  0.00000000E+00
  6.55537517E-01  0.00000000E+00  0.00000000E+00 -2.47852754E-01  0.00000000E+00
  0.00000000E+00  0.00000000E+00 -5.65273984E-01  0.00000000E+00  0.00000000E+00
  0.00000000E+00  0.00000000E+00  0.00000000E+00  0.00000000E+00  0.00000000E+00
  6.55537517E-01  0.00000000E+00  0.00000000E+00 -2.47852754E-01  0.00000000E+00
  0.00000000E+00  0.00000000E+00  5.65273984E-01  0.00000000E+00  0.00000000E+00
  0.00000000E+00  0.00000000E+00  0.00000000E+00  0.00000000E+00  6.55537517E-01
  0.00000000E+00  0.00000000E+00 -2.47852754E-01  0.00000000E+00  0.00000000E+00
  0.00000000E+00 -5.65273984E-01  0.00000000E+00  0.00000000E+00  7.00167247E-01
  7.07794896E+00  1.15096700E-01  0.00000000E+00  0.00000000E+00  1.94476667E-01
  0.00000000E+00  0.00000000E+00 -3.71743550E+00  9.57187741E-01  0.00000000E+00
  0.00000000E+00  6.78873714E-17  0.00000000E+00 -7.00167247E-01 -7.07794896E+00
 -1.15096700E-01  0.00000000E+00  0.00000000E+00  1.94476667E-01  0.00000000E+00
  0.00000000E+00 -3.71743550E+00 -9.57187741E-01  0.00000000E+00  0.00000000E+00
 -6.78873714E-17  0.00000000E+00  0.00000000E+00  0.00000000E+00  0.00000000E+00
  0.00000000E+00 -1.07385578E+00  0.00000000E+00  0.00000000E+00 -4.69642535E-01
  0.00000000E+00  0.00000000E+00  0.00000000E+00  1.35364525E+00  0.00000000E+00
  0.00000000E+00  0.00000000E+00  0.00000000E+00  0.00000000E+00  0.00000000E+00
  1.07385578E+00  0.00000000E+00  0.00000000E+00  4.69642535E-01  0.00000000E+00
  0.00000000E+00  0.00000000E+00  1.35364525E+00  0.00000000E+00  0.00000000E+00
  0.00000000E+00  0.00000000E+00  0.00000000E+00 -1.07385578E+00  0.00000000E+00
  0.00000000E+00 -4.69642535E-01  0.00000000E+00  0.00000000E+00  0.00000000E+00
  1.35364525E+00  0.00000000E+00  0.00000000E+00  0.00000000E+00  0.00000000E+00
  0.00000000E+00  0.00000000E+00  1.07385578E+00  0.00000000E+00  0.00000000E+00
  4.69642535E-01  0.00000000E+00  0.00000000E+00  0.00000000E+00  1.35364525E+00
  0.00000000E+00  0.00000000E+00  0.00000000E+00  1.21216386E+00 -5.76263342E-01
  9.37162517E-02  0.00000000E+00  0.00000000E+00 -2.24262859E-02  0.00000000E+00
  0.00000000E+00  7.08923396E-01 -1.11591104E+00  0.00000000E+00  0.00000000E+00
 -4.28195807E-17  0.00000000E+00  1.21216386E+00 -5.76263342E-01  9.37162517E-02
  0.00000000E+00  0.00000000E+00  2.24262859E-02  0.00000000E+00  0.00000000E+00
 -7.08923396E-01 -1.11591104E+00  0.00000000E+00  0.00000000E+00 -4.28195807E-17
  0.00000000E+00  1.56210682E+00  4.32077582E+00 -5.99390579E-01  0.00000000E+00
  0.00000000E+00 -1.96813862E+00  0.00000000E+00  0.00000000E+00 -1.66457496E+00
  1.01657084E+00  0.00000000E+00  0.00000000E+00  2.44681927E-16  0.00000000E+00
 -1.56210682E+00 -4.32077582E+00  5.99390579E-01  0.00000000E+00  0.00000000E+00
 -1.96813862E+00  0.00000000E+00  0.00000000E+00 -1.66457496E+00 -1.01657084E+00
  0.00000000E+00  0.00000000E+00 -2.44681927E-16  0.00000000E+00
Total SCF Density                          R   N=         406
  6.96291895E-02  1.05849337E-01  1.60910709E-01  5.04997010E-02  7.67689519E-02
  3.66257288E-02 -6.88913402E-20 -1.04727669E-19 -4.99645639E-20  5.45290479E-37
 -6.88913402E-20 -1.04727669E-19 -4.99645639E-20  0.00000000E+00  5.45290479E-37
 -4.50032387E-03 -6.84133053E-03 -3.26393301E-03  4.45263467E-21  4.45263467E-21
  2.90868170E-04 -9.93606680E-20 -1.51046723E-19 -7.20629390E-20  7.86462073E-37
  0.00000000E+00  6.42195018E-21  1.13429927E-36 -9.93606680E-20 -1.51046723E-19
 -7.20629390E-20  0.00000000E+00  7.86462073E-37  6.42195018E-21  0.00000000E+00
  1.13429927E-36 -6.49073140E-03 -9.86712073E-03 -4.70750842E-03  6.42195018E-21
  6.42195018E-21  4.19513622E-04  9.26225643E-21  9.26225643E-21  6.05056507E-04
  3.10553841E-04  4.72099684E-04  2.25234219E-04 -3.07262953E-22 -3.07262953E-22
 -2.00719393E-05 -4.43159505E-22 -4.43159505E-22 -2.89493758E-05  1.38510428E-06
  8.23414286E-21  1.25174309E-20  5.97194590E-21 -6.51750959E-38  0.00000000E+00
 -5.32195045E-22 -9.40007995E-38  0.00000000E+00 -7.67574778E-22  3.67251825E-23
  7.78996385E-39  8.23414286E-21  1.25174309E-20  5.97194590E-21 -3.99082363E-54
 -6.51750959E-38 -5.32195045E-22 -5.75588891E-54 -9.40007995E-38 -7.67574778E-22
  3.67251825E-23  4.76997715E-55  7.78996385E-39 -1.46096243E-17 -2.22261445E-17
 -1.05980762E-17  1.44585805E-35  1.44585805E-35  9.44441736E-19  2.08532698E-35
  2.08532698E-35  1.36372305E-18 -6.53274161E-20 -1.73091543E-36 -1.73091543E-36
  3.05646688E-23  0.00000000E+00  0.00000000E+00  0.00000000E+00 -2.16800972E-67
 -3.54062857E-51  0.00000000E+00 -3.12681966E-67 -5.10648403E-51  0.00000000E+00
  0.00000000E+00  0.00000000E+00  4.24144790E-52  0.00000000E+00  2.11942057E-84
  6.96291895E-02  1.05849337E-01  5.04997010E-02 -6.88913402E-20 -6.88913402E-20
 -4.50032387E-03 -9.93606680E-20 -9.93606680E-20 -6.49073140E-03  3.10553841E-04
  8.23414286E-21  8.23414286E-21 -1.46096243E-17  0.00000000E+00  6.96291895E-02
  1.05849337E-01  1.60910709E-01  7.67689519E-02 -1.04727669E-19 -1.04727669E-19
 -6.84133053E-03 -1.51046723E-19 -1.51046723E-19 -9.86712073E-03  4.72099684E-04
  1.25174309E-20  1.25174309E-20 -2.22261445E-17  0.00000000E+00  1.05849337E-01
  1.60910709E-01  5.04997010E-02  7.67689519E-02  3.66257288E-02 -4.99645639E-20
 -4.99645639E-20 -3.26393301E-03 -7.20629390E-20 -7.20629390E-20 -4.70750842E-03
  2.25234219E-04  5.97194590E-21  5.97194590E-21 -1.05980762E-17  0.00000000E+00
  5.04997010E-02  7.67689519E-02  3.66257288E-02  6.88913402E-20  1.04727669E-19
  4.99645639E-20 -5.45290479E-37  0.00000000E+00 -4.45263467E-21 -7.86462073E-37
  0.00000000E+00 -6.42195018E-21  3.07262953E-22  6.51750959E-38  3.99082363E-54
 -1.44585805E-35  2.16800972E-67  6.88913402E-20  1.04727669E-19  4.99645639E-20
  5.45290479E-37  6.88913402E-20  1.04727669E-19  4.99645639E-20  0.00000000E+00
 -5.45290479E-37 -4.45263467E-21  0.00000000E+00 -7.86462073E-37 -6.42195018E-21
  3.07262953E-22  0.00000000E+00  6.51750959E-38 -1.44585805E-35  3.54062857E-51
  6.88913402E-20  1.04727669E-19  4.99645639E-20  0.00000000E+00  5.45290479E-37
  4.50032387E-03  6.84133053E-03  3.26393301E-03 -4.45263467E-21 -4.45263467E-21
 -2.90868170E-04 -6.42195018E-21 -6.42195018E-21 -4.19513622E-04  2.00719393E-05
  5.32195045E-22  5.32195045E-22 -9.44441736E-19  0.00000000E+00  4.50032387E-03
  6.84133053E-03  3.26393301E-03  4.45263467E-21  4.45263467E-21  2.90868170E-04
  9.93606680E-20  1.51046723E-19  7.20629390E-20 -7.86462073E-37  0.00000000E+00
 -6.42195018E-21 -1.13429927E-36  0.00000000E+00 -9.26225643E-21  4.43159505E-22
  9.40007995E-38  5.75588891E-54 -2.08532698E-35  3.12681966E-67  9.93606680E-20
  1.51046723E-19  7.20629390E-20  7.86462073E-37  0.00000000E+00  6.42195018E-21
  1.13429927E-36  9.93606680E-20  1.51046723E-19  7.20629390E-20  0.00000000E+00
 -7.86462073E-37 -6.42195018E-21  0.00000000E+00 -1.13429927E-36 -9.26225643E-21
  4.43159505E-22  0.00000000E+00  9.40007995E-38 -2.08532698E-35  5.10648403E-51
  9.93606680E-20  1.51046723E-19  7.20629390E-20  0.00000000E+00  7.86462073E-37
  6.42195018E-21  0.00000000E+00  1.13429927E-36  6.49073140E-03  9.86712073E-03
  4.70750842E-03 -6.42195018E-21 -6.42195018E-21 -4.19513622E-04 -9.26225643E-21
 -9.26225643E-21 -6.05056507E-04  2.89493758E-05  7.67574778E-22  7.67574778E-22
 -1.36372305E-18  0.00000000E+00  6.49073140E-03  9.86712073E-03  4.70750842E-03
  6.42195018E-21  6.42195018E-21  4.19513622E-04  9.26225643E-21  9.26225643E-21
  6.05056507E-04  3.10553841E-04  4.72099684E-04  2.25234219E-04 -3.07262953E-22
 -3.07262953E-22 -2.00719393E-05 -4.43159505E-22 -4.43159505E-22 -2.89493758E-05
  1.38510428E-06  3.67251825E-23  3.67251825E-23 -6.53097695E-20  0.00000000E+00
  3.10553841E-04  4.72099684E-04  2.25234219E-04  3.07262953E-22  3.07262953E-22
  2.00719393E-05  4.43159505E-22  4.43159505E-22  2.89493758E-05  1.38510428E-06
  8.23414286E-21  1.25174309E-20  5.97194590E-21 -6.51750959E-38  0.00000000E+00
 -5.32195045E-22 -9.40007995E-38  0.00000000E+00 -7.67574778E-22  3.67251825E-23
  7.78996385E-39  4.76997715E-55 -1.73091543E-36  2.59595735E-68  8.23414286E-21
  1.25174309E-20  5.97194590E-21  6.51750959E-38  0.00000000E+00  5.32195045E-22
  9.40007995E-38  0.00000000E+00  7.67574778E-22  3.67251825E-23  7.78996385E-39
  8.23414286E-21  1.25174309E-20  5.97194590E-21 -3.99082363E-54 -6.51750959E-38
 -5.32195045E-22 -5.75588891E-54 -9.40007995E-38 -7.67574778E-22  3.67251825E-23
  0.00000000E+00  7.78996385E-39 -1.73091543E-36  4.23952009E-52  8.23414286E-21
  1.25174309E-20  5.97194590E-21  3.99082363E-54  6.51750959E-38  5.32195045E-22
  5.75588891E-54  9.40007995E-38  7.67574778E-22  3.67251825E-23  4.76997715E-55
  7.78996385E-39 -1.46096243E-17 -2.22261445E-17 -1.05980762E-17  1.44585805E-35
  1.44585805E-35  9.44441736E-19  2.08532698E-35  2.08532698E-35  1.36372305E-18
 -6.53274161E-20 -1.73091543E-36 -1.73091543E-36  3.05646688E-23  0.00000000E+00
 -1.46096243E-17 -2.22261445E-17 -1.05980762E-17 -1.44585805E-35 -1.44585805E-35
 -9.44441736E-19 -2.08532698E-35 -2.08532698E-35 -1.36372305E-18 -6.53274161E-20
 -1.73091543E-36 -1.73091543E-36  3.05646688E-23  0.00000000E+00  0.00000000E+00
  0.00000000E+00 -2.16800972E-67 -3.54062857E-51  0.00000000E+00 -3.12681966E-67
 -5.10648403E-51  0.00000000E+00  0.00000000E+00  0.00000000E+00  4.24144790E-52
  0.00000000E+00  2.11942057E-84  0.00000000E+00  0.00000000E+00  0.00000000E+00
  2.16800972E-67  3.54062857E-51  0.00000000E+00  3.12681966E-67  5.10648403E-51
  0.00000000E+00  0.00000000E+00  0.00000000E+00  4.24144790E-52  0.00000000E+00
  2.11942057E-84
QEq coupling tensors                       R   N=          12
  1.75284979E-01  0.00000000E+00  1.75284979E-01  3.32740704E-17  0.00000000E+00
 -3.50569957E-01  1.75284979E-01  0.00000000E+00  1.75284979E-01  2.09118954E-17
  0.00000000E+00 -3.50569957E-01
Mulliken Charges                           R   N=           2
 -1.38777878E-15 -1.44328993E-15
ONIOM Charges                              I   N=          16
           0           0           0           0           0           0
           0           0           0           0           0           0
           0           0           0           0
ONIOM Multiplicities                       I   N=          16
           1           0           0           0           0           0
           0           0           0           0           0           0
           0           0           0           0
Atom Layers                                I   N=           2
           1           1
Atom Modifiers                             I   N=           2
           0           0
Force Field                                I                0
Int Atom Modified Types                    I   N=           2
           0           0
Link Atoms                                 I   N=           2
           0           0
Atom Modified MM Charges                   R   N=           2
  0.00000000E+00  0.00000000E+00
Link Distances                             R   N=           8
  0.00000000E+00  0.00000000E+00  0.00000000E+00  0.00000000E+00  0.00000000E+00
  0.00000000E+00  0.00000000E+00  0.00000000E+00
Cartesian Gradient                         R   N=           6
  0.00000000E+00  0.00000000E+00  0.00000000E+00  0.00000000E+00  0.00000000E+00
  0.00000000E+00
Dipole Moment                              R   N=           3
 -1.47911420E-31  4.81482486E-35  1.77429843E-17
Quadrupole Moment                          R   N=           6
 -1.54206324E-01 -1.54206324E-01  3.08412648E-01 -6.58319168E-35 -2.33102743E-17
  1.00339357E-18
